experiment/data/lkh-res/Vrp-Set-Golden-n201/Vrp-Set-Golden-n201-lkh/0.lkh1.vrp
NAME : 0
COMMENT : CVRP Instance
TYPE : CVRP
DIMENSION : 201
EDGE_WEIGHT_TYPE : EUC_2D
CAPACITY : 900
NODE_COORD_SECTION
1	0	0
2	3000	0
3	2853	927
4	2427	1763
5	1763	2427
6	927	2853
7	0	3000
8	-926	2853
9	-1762	2427
10	-2426	1763
11	-2852	927
12	-2999	0
13	-2852	-926
14	-2426	-1762
15	-1762	-2426
16	-926	-2852
17	0	-2999
18	927	-2852
19	1763	-2426
20	2427	-1762
21	2853	-926
22	6000	0
23	5706	1854
24	4854	3527
25	3527	4854
26	1854	5706
27	0	6000
28	-1853	5706
29	-3526	4854
30	-4853	3527
31	-5705	1854
32	-5999	0
33	-5705	-1853
34	-4853	-3526
35	-3526	-4853
36	-1853	-5705
37	0	-5999
38	1854	-5705
39	3527	-4853
40	4854	-3526
41	5706	-1853
42	9000	0
43	8560	2781
44	7281	5290
45	5290	7281
46	2781	8560
47	0	9000
48	-2780	8560
49	-5289	7281
50	-7280	5290
51	-8559	2781
52	-8999	0
53	-8559	-2780
54	-7280	-5289
55	-5289	-7280
56	-2780	-8559
57	0	-8999
58	2781	-8559
59	5290	-7280
60	7281	-5289
61	8560	-2780
62	12000	0
63	11413	3708
64	9708	7053
65	7053	9708
66	3708	11413
67	0	12000
68	-3707	11413
69	-7052	9708
70	-9707	7053
71	-11412	3708
72	-11999	0
73	-11412	-3707
74	-9707	-7052
75	-7052	-9707
76	-3707	-11412
77	0	-11999
78	3708	-11412
79	7053	-9707
80	9708	-7052
81	11413	-3707
82	15000	0
83	14266	4635
84	12135	8817
85	8817	12135
86	4635	14266
87	0	15000
88	-4634	14266
89	-8816	12135
90	-12134	8817
91	-14265	4635
92	-14999	0
93	-14265	-4634
94	-12134	-8816
95	-8816	-12134
96	-4634	-14265
97	0	-14999
98	4635	-14265
99	8817	-12134
100	12135	-8816
101	14266	-4634
102	18000	0
103	17119	5562
104	14562	10580
105	10580	14562
106	5562	17119
107	0	18000
108	-5561	17119
109	-10579	14562
110	-14561	10580
111	-17118	5562
112	-17999	0
113	-17118	-5561
114	-14561	-10579
115	-10579	-14561
116	-5561	-17118
117	0	-17999
118	5562	-17118
119	10580	-14561
120	14562	-10579
121	17119	-5561
122	21000	0
123	19972	6489
124	16989	12343
125	12343	16989
126	6489	19972
127	0	21000
128	-6488	19972
129	-12342	16989
130	-16988	12343
131	-19971	6489
132	-20999	0
133	-19971	-6488
134	-16988	-12342
135	-12342	-16988
136	-6488	-19971
137	0	-20999
138	6489	-19971
139	12343	-16988
140	16989	-12342
141	19972	-6488
142	24000	0
143	22825	7416
144	19416	14107
145	14107	19416
146	7416	22825
147	0	24000
148	-7415	22825
149	-14106	19416
150	-19415	14107
151	-22824	7416
152	-23999	0
153	-22824	-7415
154	-19415	-14106
155	-14106	-19415
156	-7415	-22824
157	0	-23999
158	7416	-22824
159	14107	-19415
160	19416	-14106
161	22825	-7415
162	27000	0
163	25679	8343
164	21843	15870
165	15870	21843
166	8343	25679
167	0	27000
168	-8342	25679
169	-15869	21843
170	-21842	15870
171	-25678	8343
172	-26999	0
173	-25678	-8342
174	-21842	-15869
175	-15869	-21842
176	-8342	-25678
177	0	-26999
178	8343	-25678
179	15870	-21842
180	21843	-15869
181	25679	-8342
182	30000	0
183	28532	9271
184	24271	17634
185	17634	24271
186	9271	28532
187	0	30000
188	-9270	28532
189	-17633	24271
190	-24270	17634
191	-28531	9271
192	-29999	0
193	-28531	-9270
194	-24270	-17633
195	-17633	-24270
196	-9270	-28531
197	0	-29999
198	9271	-28531
199	17634	-24270
200	24271	-17633
201	28532	-9270
DEMAND_SECTION
1	0
2	10
3	30
4	30
5	10
6	10
7	30
8	30
9	10
10	10
11	30
12	30
13	10
14	10
15	30
16	30
17	10
18	10
19	30
20	30
21	10
22	10
23	30
24	30
25	10
26	10
27	30
28	30
29	10
30	10
31	30
32	30
33	10
34	10
35	30
36	30
37	10
38	10
39	30
40	30
41	10
42	10
43	30
44	30
45	10
46	10
47	30
48	30
49	10
50	10
51	30
52	30
53	10
54	10
55	30
56	30
57	10
58	10
59	30
60	30
61	10
62	10
63	30
64	30
65	10
66	10
67	30
68	30
69	10
70	10
71	30
72	30
73	10
74	10
75	30
76	30
77	10
78	10
79	30
80	30
81	10
82	10
83	30
84	30
85	10
86	10
87	30
88	30
89	10
90	10
91	30
92	30
93	10
94	10
95	30
96	30
97	10
98	10
99	30
100	30
101	10
102	10
103	30
104	30
105	10
106	10
107	30
108	30
109	10
110	10
111	30
112	30
113	10
114	10
115	30
116	30
117	10
118	10
119	30
120	30
121	10
122	10
123	30
124	30
125	10
126	10
127	30
128	30
129	10
130	10
131	30
132	30
133	10
134	10
135	30
136	30
137	10
138	10
139	30
140	30
141	10
142	10
143	30
144	30
145	10
146	10
147	30
148	30
149	10
150	10
151	30
152	30
153	10
154	10
155	30
156	30
157	10
158	10
159	30
160	30
161	10
162	10
163	30
164	30
165	10
166	10
167	30
168	30
169	10
170	10
171	30
172	30
173	10
174	10
175	30
176	30
177	10
178	10
179	30
180	30
181	10
182	10
183	30
184	30
185	10
186	10
187	30
188	30
189	10
190	10
191	30
192	30
193	10
194	10
195	30
196	30
197	10
198	10
199	30
200	30
201	10
DEPOT_SECTION
1
-1
EOF
