experiment/data/lkh-res/Vrp-Set-Golden-n201/Vrp-Set-Golden-n201-lkh/0.lkh1.log
PARAMETER_FILE = baseline_results/cvrp_lkh/Vrp-Set-Golden-n201/Vrp-Set-Golden-n201-lkh/0.lkh1.par
Reading PROBLEM_FILE: "baseline_results/cvrp_lkh/Vrp-Set-Golden-n201/Vrp-Set-Golden-n201-lkh/0.lkh1.vrp" ... done
ASCENT_CANDIDATES = 50
BACKBONE_TRIALS = 0
BACKTRACKING = NO
# BWTSP =
# CANDIDATE_FILE =
CANDIDATE_SET_TYPE = ALPHA
# DISTANCE =
DEPOT = 1
# EDGE_FILE =
EXCESS = 0.00497512
EXTERNAL_SALESMEN = 0
EXTRA_CANDIDATES = 0 
EXTRA_CANDIDATE_SET_TYPE = QUADRANT
GAIN23 = NO
GAIN_CRITERION = YES
INITIAL_PERIOD = 100
INITIAL_STEP_SIZE = 1
INITIAL_TOUR_ALGORITHM = WALK
# INITIAL_TOUR_FILE = 
INITIAL_TOUR_FRACTION = 1.000
# INPUT_TOUR_FILE = 
KICK_TYPE = 4
KICKS = 1
# MAX_BREADTH =
MAKESPAN = NO
MAX_CANDIDATES = 5 
MAX_SWAPS = 0
MAX_TRIALS = 10000
# MERGE_TOUR_FILE =
MOVE_TYPE = 5 SPECIAL
MTSP_MIN_SIZE = 1
MTSP_MAX_SIZE = 200
# MTSP_SOLUTION_FILE = 
# NONSEQUENTIAL_MOVE_TYPE = 5
# OPTIMUM =
OUTPUT_TOUR_FILE = baseline_results/cvrp_lkh/Vrp-Set-Golden-n201/Vrp-Set-Golden-n201-lkh/0.lkh1.tour
PATCHING_A = 1 
PATCHING_C = 0 
# PI_FILE = 
POPMUSIC_INITIAL_TOUR = NO
POPMUSIC_MAX_NEIGHBORS = 5
POPMUSIC_SAMPLE_SIZE = 10
POPMUSIC_SOLUTIONS = 50
POPMUSIC_TRIALS = 1
POPULATION_SIZE = 10
PRECISION = 100
PROBLEM_FILE = baseline_results/cvrp_lkh/Vrp-Set-Golden-n201/Vrp-Set-Golden-n201-lkh/0.lkh1.vrp
RECOMBINATION = IPT
RESTRICTED_SEARCH = YES
RUNS = 1
SALESMEN = 5
SCALE = 1
SEED = 1234
# SINTEF_SOLUTION_FILE = 
STOP_AT_OPTIMUM = YES
SUBGRADIENT = YES
# SUBPROBLEM_SIZE =
# SUBPROBLEM_TOUR_FILE = 
SUBSEQUENT_MOVE_TYPE = 5 SPECIAL
SUBSEQUENT_PATCHING = YES
# TIME_LIMIT =
# TOTAL_TIME_LIMIT =
# TOUR_FILE = 
TRACE_LEVEL = 1
VEHICLES = 5

Lower bound = 627705.7, Ascent time = 0.05 sec.
Cand.min = 5, Cand.avg = 5.0, Cand.max = 5
Preprocessing time = 0.05 sec.
* 1: Cost = 0_675580, Time = 0.01 sec. 
Writing OUTPUT_TOUR_FILE: "baseline_results/cvrp_lkh/Vrp-Set-Golden-n201/Vrp-Set-Golden-n201-lkh/0.lkh1.tour" ... done
* 3: Cost = 0_673836, Time = 0.01 sec. 
Writing OUTPUT_TOUR_FILE: "baseline_results/cvrp_lkh/Vrp-Set-Golden-n201/Vrp-Set-Golden-n201-lkh/0.lkh1.tour" ... done
* 23: Cost = 0_658302, Time = 0.02 sec. 
Writing OUTPUT_TOUR_FILE: "baseline_results/cvrp_lkh/Vrp-Set-Golden-n201/Vrp-Set-Golden-n201-lkh/0.lkh1.tour" ... done
* 34: Cost = 0_651783, Time = 0.02 sec. 
Writing OUTPUT_TOUR_FILE: "baseline_results/cvrp_lkh/Vrp-Set-Golden-n201/Vrp-Set-Golden-n201-lkh/0.lkh1.tour" ... done
* 51: Cost = 0_650528, Time = 0.03 sec. 
Writing OUTPUT_TOUR_FILE: "baseline_results/cvrp_lkh/Vrp-Set-Golden-n201/Vrp-Set-Golden-n201-lkh/0.lkh1.tour" ... done
* 67: Cost = 0_646101, Time = 0.04 sec. 
Writing OUTPUT_TOUR_FILE: "baseline_results/cvrp_lkh/Vrp-Set-Golden-n201/Vrp-Set-Golden-n201-lkh/0.lkh1.tour" ... done
* 77: Cost = 0_646100, Time = 0.04 sec. 
Writing OUTPUT_TOUR_FILE: "baseline_results/cvrp_lkh/Vrp-Set-Golden-n201/Vrp-Set-Golden-n201-lkh/0.lkh1.tour" ... done
* 82: Cost = 0_646098, Time = 0.04 sec. 
Writing OUTPUT_TOUR_FILE: "baseline_results/cvrp_lkh/Vrp-Set-Golden-n201/Vrp-Set-Golden-n201-lkh/0.lkh1.tour" ... done
Population:
  1: 0_646098
Run 1: Cost = 0_646098, Time = 3.60 sec. 

Successes/Runs = 0/1 
Cost.min = 646098, Cost.avg = 646098.00, Cost.max = 646098
Gap.min = 0.0000%, Gap.avg = 0.0000%, Gap.max = 0.0000%
Penalty.min = 0, Penalty.avg = 0.00, Penalty.max = 0
Trials.min = 10000, Trials.avg = 10000.0, Trials.max = 10000
Time.min = 3.60 sec., Time.avg = 3.60 sec., Time.max = 3.60 sec.
Time.total = 3.65 sec.
  Size.min = 38, Size.max = 41, Penalty = 0
  Cost.min = 127346, Cost.max = 130159, Cost.sum = 646098
Best CVRP solution:
  Cost = 0_646098

