experiment/data/lkh-res/Vrp-Set-Golden-n201/Vrp-Set-Golden-n201-lkh/0.lkh1.tour
NAME : 0.646098.tour
COMMENT : Length = 646098
COMMENT : Found by LKH-3 [Keld Helsgaun] Tue Apr  9 01:55:37 2024
TYPE : TOUR
DIMENSION : 205
TOUR_SECTION
1
5
6
26
25
24
44
64
84
104
124
144
164
184
185
165
145
125
105
85
65
45
46
66
86
106
126
146
166
186
187
167
147
127
107
87
67
47
27
7
8
9
203
12
13
33
32
52
72
92
112
132
152
172
192
193
173
153
133
113
93
73
53
54
74
94
114
134
154
174
194
195
175
155
135
115
95
75
55
35
34
14
205
11
31
51
71
91
111
131
151
171
191
190
170
150
130
110
90
70
50
49
69
89
109
129
149
169
189
188
168
148
128
108
88
68
48
28
29
30
10
204
20
21
2
22
41
40
60
80
100
120
140
160
180
200
201
181
161
141
121
101
81
61
42
62
82
102
122
142
162
182
183
163
143
123
103
83
63
43
23
3
4
202
19
18
38
39
59
79
99
119
139
159
179
199
198
178
158
138
118
98
78
58
57
77
97
117
137
157
177
197
196
176
156
136
116
96
76
56
36
37
17
16
15
-1
EOF
